#######################



#######################
Set parameter TimeLimit to value 300
Set parameter SoftMemLimit to value 125
Set parameter MIPFocus to value 3
Set parameter LogFile to value 1003-MIPFocus3-Presolve1-TimeLimit300-k16x240-8.log
Set parameter Presolve to value 1
Set parameter Seed to value 8
Using license file /opt/gurobi/gurobi.lic

Gurobi Optimizer version 10.0.3 build v10.0.3rc0 (linux64)
Copyright (c) 2023, Gurobi Optimization, LLC

Read MPS format model from file /miplib2010/k16x240.mps.bz2
Reading time = 0.00 seconds
k16x240: 256 rows, 480 columns, 960 nonzeros

CPU model: Intel(R) Xeon(R) E-2388G CPU @ 3.20GHz, instruction set [SSE2|AVX|AVX2|AVX512]
Thread count: 8 physical cores, 16 logical processors, using up to 16 threads

Optimize a model with 256 rows, 480 columns and 960 nonzeros
Model fingerprint: 0x4e80885f
Variable types: 240 continuous, 240 integer (240 binary)
Coefficient statistics:
  Matrix range     [1e+00, 1e+03]
  Objective range  [1e+00, 1e+03]
  Bounds range     [1e+00, 1e+03]
  RHS range        [4e+00, 4e+02]
Found heuristic solution: objective 27117.000000
Presolve time: 0.00s
Presolved: 256 rows, 480 columns, 960 nonzeros
Variable types: 240 continuous, 240 integer (240 binary)

Root relaxation: objective 2.769838e+03, 51 iterations, 0.00 seconds (0.00 work units)

    Nodes    |    Current Node    |     Objective Bounds      |     Work
 Expl Unexpl |  Obj  Depth IntInf | Incumbent    BestBd   Gap | It/Node Time

     0     0 2769.83800    0   14 27117.0000 2769.83800  89.8%     -    0s
H    0     0                    11359.000000 2769.83800  75.6%     -    0s
H    0     0                    11195.000000 2769.83800  75.3%     -    0s
H    0     0                    11074.000000 8116.87580  26.7%     -    0s
H    0     0                    10916.000000 8116.87580  25.6%     -    0s
     0     0 8116.87580    0   26 10916.0000 8116.87580  25.6%     -    0s
H    0     0                    10826.000000 8116.87580  25.0%     -    0s
H    0     0                    10806.000000 8645.91659  20.0%     -    0s
     0     0 8742.09840    0   28 10806.0000 8742.09840  19.1%     -    0s
H    0     0                    10746.000000 8742.09840  18.6%     -    0s
     0     0 8997.95820    0   29 10746.0000 8997.95820  16.3%     -    0s
     0     0 9132.42006    0   40 10746.0000 9132.42006  15.0%     -    0s
     0     0 9132.42006    0   42 10746.0000 9132.42006  15.0%     -    0s
     0     0 9133.11079    0   44 10746.0000 9133.11079  15.0%     -    0s
     0     0 9133.11079    0   47 10746.0000 9133.11079  15.0%     -    0s
     0     0 9159.98125    0   40 10746.0000 9159.98125  14.8%     -    0s
     0     0 9159.98125    0   36 10746.0000 9159.98125  14.8%     -    0s
     0     0 9210.36578    0   40 10746.0000 9210.36578  14.3%     -    0s
     0     0 9210.36578    0   40 10746.0000 9210.36578  14.3%     -    0s
     0     2 9210.36578    0   40 10746.0000 9210.36578  14.3%     -    0s
H  260   268                    10674.000000 9563.34604  10.4%  46.2    0s
  4364  3272 10388.6479   24   41 10674.0000 10232.6708  4.13%  73.9    5s
 18982 10919     cutoff   22      10674.0000 10457.5278  2.03%  55.4   10s
 47120 10551     cutoff   24      10674.0000 10606.8160  0.63%  39.8   15s

Cutting planes:
  Gomory: 2
  Lift-and-project: 7
  Cover: 1
  Implied bound: 5
  MIR: 120
  Flow cover: 494
  Flow path: 32
  Zero half: 37
  Network: 21
  Relax-and-lift: 3

Explored 64298 nodes (2103592 simplex iterations) in 16.50 seconds (22.10 work units)
Thread count was 16 (of 16 available processors)

Solution count 10: 10674 10674 10746 ... 27117

Optimal solution found (tolerance 1.00e-04)
Best objective 1.067400000000e+04, best bound 1.067302009587e+04, gap 0.0092%
